tsp_instances/TSP20/instance107.tsp
NODE_COORD_SECTION
0 119 2
1 13 197
2 89 35
3 16 180
4 81 164
5 133 114
6 4 5
7 59 122
8 83 177
9 141 132
10 172 138
11 44 151
12 110 74
13 139 197
14 78 183
15 142 167
16 190 161
17 17 162
18 109 134
19 174 19
