tsp_instances/TSP20/instance107.opt.tour
TOUR_SECTION
1
3
7
8
12
18
4
2
15
9
5
19
16
14
17
11
10
6
13
20
-1